
Gurobi 11.0.3 (linux64) logging started Thu Nov 21 13:30:48 2024

Set parameter LogFile to value "/home/yihong/Coding/OR_SUC/SUC_results_bigM100000_thread4/case24_ieee_rts_theta0.1_epsilon0.05_gurobi_seed170000_num_gen100_N_WDR100_load_scaling_factor1_exact_T12quadra_cost.txt"
Set parameter TimeLimit to value 3600
Gurobi Optimizer version 11.0.3 build v11.0.3rc0 (linux64 - "Ubuntu 20.04.6 LTS")

CPU model: AMD EPYC 7532 32-Core Processor, instruction set [SSE2|AVX|AVX2]
Thread count: 64 physical cores, 128 logical processors, using up to 4 threads

Optimize a model with 28631 rows, 15081 columns and 662130 nonzeros
Model fingerprint: 0x144a63f4
Model has 1200 quadratic constraints
Variable types: 13781 continuous, 1300 integer (1300 binary)
Coefficient statistics:
  Matrix range     [3e-04, 1e+05]
  QMatrix range    [2e-03, 8e-03]
  QLMatrix range   [5e-02, 6e+01]
  Objective range  [1e+00, 1e+00]
  Bounds range     [1e+00, 1e+00]
  RHS range        [1e+00, 1e+05]
Presolve removed 23378 rows and 6446 columns
Presolve time: 0.16s
Presolved: 5253 rows, 8635 columns, 29615 nonzeros
Presolved model has 1200 quadratic constraint(s)
Variable types: 7360 continuous, 1275 integer (1275 binary)

Root relaxation: objective 1.487304e+04, 3936 iterations, 0.08 seconds (0.10 work units)

    Nodes    |    Current Node    |     Objective Bounds      |     Work
 Expl Unexpl |  Obj  Depth IntInf | Incumbent    BestBd   Gap | It/Node Time

     0     0 14873.0365    0   23          - 14873.0365      -     -    0s
     0     0 178385.448    0  315          - 178385.448      -     -    0s
     0     0 178465.894    0  313          - 178465.894      -     -    0s
     0     0 308284.820    0  190          - 308284.820      -     -    0s
     0     0 308388.971    0  178          - 308388.971      -     -    0s
     0     0 308831.855    0  116          - 308831.855      -     -    0s
     0     0 308878.551    0  119          - 308878.551      -     -    0s
     0     0 308970.791    0  105          - 308970.791      -     -    0s
     0     0 308971.462    0  105          - 308971.462      -     -    0s
     0     2 308971.462    0  105          - 308971.462      -     -    1s
H  116   117                    309094.78667 308997.153  0.03%  23.8    2s
*  116   117              47    309094.78667 308997.153  0.03%  23.9    2s

Cutting planes:
  Gomory: 42
  Implied bound: 307
  MIR: 104
  Flow cover: 134
  RLT: 3

Explored 122 nodes (13456 simplex iterations) in 2.70 seconds (3.47 work units)
Thread count was 4 (of 128 available processors)

Solution count 2: 309095 309095 

Optimal solution found (tolerance 1.00e-03)
Warning: max constraint violation (1.1674e-07) exceeds tolerance
Best objective 3.090947866673e+05, best bound 3.089971530961e+05, gap 0.0316%
